000 000 000 000 000 000 000 000 -99 -99 -99 -99 -99 000 000 -99 000 000 000 000 000 000 001 002 004 003 000 003 003 -99 -99
000 000 000 000 000 000 000 000 -99 -99 -99 -99 000 000 000 000 001 000 000 001 003 006 016 011 011 021 020 014 005 002 -99
000 000 000 000 000 000 000 000 000 000 -99 000 000 000 000 000 001 002 002 003 007 023 065 046 034 039 041 047 035 001 -99
000 000 000 000 000 000 002 000 000 000 000 000 000 001 002 002 004 007 010 006 017 040 131 126 078 096 092 054 028 003 004
000 000 000 001 002 001 000 000 000 000 000 001 002 003 004 008 012 017 042 010 019 096 220 168 105 092 100 102 034 017 010
000 000 002 008 005 003 000 001 000 000 001 005 005 010 013 023 020 055 064 023 026 134 199 162 203 134 146 107 048 051 030
000 002 002 021 012 003 000 002 000 001 006 013 014 010 013 026 046 058 082 036 048 134 211 158 187 187 207 089 080 068 078
000 006 011 026 022 007 003 002 004 002 017 030 019 016 029 050 060 048 054 050 039 045 109 146 158 283 271 152 082 065 051
000 001 013 029 021 017 006 003 002 005 036 048 034 015 020 032 054 025 021 034 046 046 114 100 131 244 199 107 046 037 039
001 001 005 025 013 016 016 004 003 011 028 031 044 030 010 016 022 018 008 011 022 029 050 030 109 165 172 134 056 058 050
002 001 003 011 006 004 005 003 003 020 031 034 052 021 010 005 007 006 005 008 011 011 034 020 061 187 158 118 077 060 043
003 002 002 005 004 003 005 005 007 028 031 038 082 019 006 003 002 003 002 004 002 006 009 010 031 089 109 195 105 056 053
008 008 004 004 003 003 009 015 024 044 039 033 046 006 002 001 002 001 001 000 000 001 003 004 009 031 092 140 078 064 061
008 017 006 004 004 002 005 014 021 028 050 029 039 015 003 001 002 000 001 000 000 000 002 003 006 015 064 058 069 128 050
013 009 007 009 004 002 004 004 010 012 028 018 018 005 001 001 001 000 000 000 001 001 002 002 005 010 036 045 044 066 114
009 009 007 008 003 001 002 003 003 004 008 006 010 003 001 001 000 000 000 000 001 002 002 003 005 008 010 017 011 022 034
005 004 006 005 002 001 002 002 002 001 003 005 006 004 001 001 001 001 000 000 001 001 001 002 004 005 010 006 008 010 014
003 005 002 003 002 003 002 002 002 001 002 006 003 004 002 003 003 002 000 000 000 001 001 001 003 005 013 007 005 008 006
002 002 002 002 001 002 001 001 000 001 002 002 002 002 003 005 004 003 001 000 000 001 001 001 003 003 006 009 007 009 005
001 001 002 002 001 001 001 001 000 001 002 002 002 003 004 005 002 001 000 000 000 000 001 002 002 002 004 008 004 005 004
000 001 002 002 001 001 001 001 001 001 002 002 002 002 002 003 002 000 000 000 000 000 000 001 001 001 002 003 004 003 003
000 001 001 001 000 001 001 001 001 001 002 002 002 002 001 000 000 000 000 000 000 000 000 000 -99 000 001 -99 002 002 002
001 001 001 001 000 000 000 000 001 000 002 002 001 001 000 000 000 000 000 000 000 000 000 000 -99 000 001 -99 002 002 001
000 000 000 000 001 000 000 000 000 000 000 001 000 000 000 000 000 000 000 000 000 000 000 -99 -99 -99 -99 -99 -99 001 001
000 000 000 000 000 000 000 000 001 000 000 000 000 000 000 000 000 000 000 000 000 000 000 -99 -99 -99 -99 -99 -99 000 000
000 000 000 000 000 000 000 000 000 000 000 000 000 000 000 000 000 000 000 000 000 000 000 -99 -99 -99 -99 -99 -99 000 000
000 000 000 000 000 000 000 000 000 000 000 000 000 000 000 000 000 000 000 000 000 000 000 -99 -99 -99 -99 -99 -99 000 000
000 000 000 000 000 000 000 000 000 000 000 000 000 000 000 000 000 000 000 000 000 000 000 -99 -99 -99 -99 -99 -99 000 000
000 000 000 000 000 000 000 000 000 000 000 000 000 000 000 000 000 000 000 000 000 000 -99 -99 -99 -99 -99 -99 -99 000 000
000 000 000 000 000 000 000 000 000 000 000 000 000 000 000 000 000 000 000 000 000 000 -99 000 000 -99 -99 -99 -99 -99 000
000 000 000 000 000 000 000 000 000 000 000 000 000 000 000 000 000 000 000 000 000 000 000 000 000 000 -99 -99 -99 -99 000
000 000 000 000 000 000 000 000 000 000 000 000 000 000 000 000 000 000 000 000 000 000 000 000 000 000 -99 000 000 001 001
000 000 000 000 000 000 000 000 000 000 000 000 000 000 000 000 000 000 000 000 000 000 000 000 000 000 -99 000 000 000 000
000 000 000 000 000 000 000 000 000 000 000 000 000 000 000 000 000 000 000 000 000 000 000 000 000 000 000 000 000 000 000
000 000 000 000 000 000 000 000 000 000 000 000 000 000 000 000 000 000 000 000 000 000 000 001 000 000 000 000 000 000 000
000 000 -99 000 000 000 000 000 000 000 000 000 000 000 000 000 000 000 000 001 000 001 001 001 000 000 000 000 000 000 000
000 000 -99 000 000 -99 000 000 000 000 000 000 000 001 001 001 001 000 001 001 001 002 001 000 000 000 000 000 000 -99 -99
000 000 -99 000 000 -99 -99 -99 -99 000 000 000 000 000 000 001 001 001 002 001 001 001 000 000 000 000 000 -99 -99 -99 -99
000 000 000 000 -99 -99 -99 -99 -99 000 000 000 000 000 000 000 000 000 000 002 001 001 000 000 000 000 000 -99 -99 -99 -99
-99 -99 000 000 -99 -99 -99 -99 -99 -99 000 000 000 000 000 000 000 000 000 000 000 000 001 000 000 -99 000 -99 -99 -99 -99
-99 -99 000 000 -99 -99 -99 -99 -99 -99 000 000 000 000 000 000 000 000 000 000 000 000 000 000 000 000 000 -99 -99 -99 -99
000 -99 -99 -99 -99 -99 -99 -99 -99 000 000 000 000 000 -99 -99 -99 000 000 000 000 000 000 000 000 000 -99 -99 -99 -99 -99
-99 000 -99 -99 -99 -99 -99 -99 -99 000 000 000 -99 -99 000 000 000 000 000 000 000 000 000 000 000 000 -99 -99 -99 -99 -99
000 -99 -99 -99 -99 -99 -99 -99 -99 -99 -99 -99 -99 -99 000 000 000 000 000 000 000 000 000 000 000 000 -99 -99 -99 -99 -99
000 -99 -99 -99 -99 -99 -99 -99 -99 -99 -99 -99 -99 000 000 000 000 000 000 000 000 000 -99 -99 -99 000 000 -99 -99 -99 -99
-99 -99 -99 -99 -99 -99 -99 -99 -99 -99 -99 000 -99 000 000 000 000 000 000 000 000 -99 000 000 -99 -99 000 -99 -99 -99 -99
-99 -99 -99 -99 -99 -99 -99 -99 -99 -99 -99 000 000 -99 -99 -99 -99 000 000 000 000 -99 000 000 -99 -99 -99 -99 -99 -99 -99
-99 -99 -99 -99 -99 -99 -99 -99 000 000 -99 -99 000 -99 -99 -99 -99 000 000 000 000 000 000 000 000 -99 -99 -99 000 -99 -99
-99 -99 -99 -99 -99 -99 -99 -99 -99 000 -99 -99 -99 -99 -99 -99 -99 -99 -99 -99 000 000 000 000 -99 -99 -99 -99 000 -99 -99
-99 -99 -99 -99 -99 -99 -99 -99 -99 -99 -99 -99 -99 -99 -99 -99 -99 -99 -99 -99 000 000 -99 -99 -99 -99 -99 -99 -99 -99 -99
-99 -99 -99 -99 -99 -99 -99 -99 -99 -99 -99 -99 -99 -99 -99 -99 -99 -99 -99 -99 000 000 -99 -99 -99 -99 -99 -99 -99 -99 -99
-99 -99 -99 -99 -99 -99 -99 -99 -99 -99 -99 -99 -99 -99 -99 -99 -99 -99 000 000 000 -99 -99 -99 -99 -99 -99 -99 -99 -99 -99
-99 -99 -99 -99 -99 -99 -99 -99 -99 -99 -99 -99 -99 -99 -99 -99 -99 000 000 000 -99 -99 -99 -99 -99 -99 -99 -99 -99 -99 -99
-99 -99 -99 -99 -99 -99 -99 -99 -99 -99 -99 -99 -99 -99 -99 -99 000 000 000 -99 -99 -99 -99 -99 -99 -99 -99 -99 -99 -99 -99
-99 -99 -99 -99 -99 -99 -99 -99 -99 -99 -99 -99 -99 -99 -99 -99 -99 000 -99 -99 -99 -99 -99 -99 -99 -99 -99 -99 -99 -99 -99
